; benchmark generated from python API
(set-info :status unknown)
(declare-datatypes ((RealState 0)) (((RMk1 (rval1 Real)) (RMk2 (rval2 Real)))))
 (assert
 (forall ((|v11:0| Real) )(forall ((|v10:1| Real) )(forall ((|v9:2| Real) )(forall ((|v8:3| Real) )(exists ((|v7:4_st| RealState) (val!4260 Real) )(exists ((|v6:5_st| RealState) (val!4261 Real) )(exists ((|v5:6_st| RealState) (val!4262 Real) )(exists ((|v4:7_st| RealState) (val!4263 Real) )(forall ((|v3:8| Real) )(forall ((|v2:9| Real) )(forall ((|v1:10| Real) )(forall ((|v0:11| Real) )(let ((?x3097 (* 14.0 |v3:8|)))
 (let ((?x3179 (- 9.0)))
 (let ((?x2791 (* ?x3179 |v0:11|)))
 (let (($x2022 (<= (+ (+ (+ (* 10.0 (rval2 |v7:4_st|)) (* (- 15.0) |v1:10|)) ?x2791) ?x3097) 6.0)))
 (let ((?x1711 (- 2.0)))
 (let ((?x3175 (rval2 |v5:6_st|)))
 (let ((?x1637 (* 7.0 ?x3175)))
 (let ((?x2826 (+ (+ (+ (* 17.0 |v10:1|) (* (- 4.0) ?x3175)) ?x1637) (* (- 4.0) (rval2 |v7:4_st|)))))
 (let ((?x207 (- 1.0)))
 (let ((?x1513 (- 14.0)))
 (let ((?x1605 (* ?x1513 |v2:9|)))
 (let ((?x1680 (+ (+ (* (- 19.0) |v11:0|) (* (- 8.0) |v1:10|)) (* (- 11.0) |v11:0|))))
 (let ((?x2322 (* 2.0 |v9:2|)))
 (let ((?x1870 (+ (+ (* (- 4.0) (rval2 |v6:5_st|)) (* (- 12.0) |v11:0|)) (* (- 11.0) |v10:1|))))
 (let (($x2897 (or (and (<= (+ ?x1870 ?x2322) 17.0) (<= (+ ?x1680 ?x1605) ?x207)) (and (<= ?x2826 ?x1711) $x2022))))
 (let ((?x323 (* 14.0 |v11:0|)))
 (let ((?x738 (+ (+ (+ (* 13.0 (rval2 |v4:7_st|)) (* 5.0 |v3:8|)) (* (- 12.0) |v3:8|)) ?x323)))
 (let ((?x1278 (- 18.0)))
 (let (($x1628 (<= (+ (+ (+ |v1:10| (* (- 4.0) |v3:8|)) (* ?x1513 |v0:11|)) (* 4.0 |v1:10|)) ?x1278)))
 (let (($x1293 (<= (+ (+ (+ ?x1637 (* ?x1513 ?x3175)) (* 13.0 |v11:0|)) (* ?x1278 |v2:9|)) 13.0)))
 (let (($x2790 (<= (+ (+ (+ (* ?x207 |v0:11|) (* 6.0 |v2:9|)) |v0:11|) (* (- 17.0) |v10:1|)) 5.0)))
 (let ((?x2108 (- 10.0)))
 (let ((?x693 (+ (+ (+ (* 7.0 (rval2 |v6:5_st|)) |v8:3|) (* 13.0 (rval2 |v7:4_st|))) (* ?x2108 ?x3175))))
 (let ((?x1021 (- 15.0)))
 (let ((?x581 (- 16.0)))
 (let ((?x1651 (* ?x581 |v1:10|)))
 (let (($x27 (<= (+ (+ (+ (* 11.0 |v1:10|) (* 15.0 |v11:0|)) (* 12.0 |v10:1|)) ?x1651) ?x1021)))
 (let ((?x1077 (+ (+ (+ (* 17.0 |v11:0|) (* 9.0 |v3:8|)) (* 4.0 |v8:3|)) (* (- 11.0) (rval2 |v7:4_st|)))))
 (let ((?x468 (rval2 |v4:7_st|)))
 (let ((?x2059 (* 10.0 ?x468)))
 (let ((?x1126 (* 16.0 |v0:11|)))
 (let ((?x479 (+ (+ (+ (* 5.0 (rval2 |v7:4_st|)) (* 18.0 (rval2 |v6:5_st|))) ?x1126) ?x2059)))
 (let ((?x2974 (* 18.0 |v8:3|)))
 (let (($x846 (<= (+ (+ (+ (* (- 3.0) |v2:9|) (* 7.0 |v0:11|)) (* ?x1513 ?x3175)) ?x2974) 11.0)))
 (let (($x655 (and (and (or $x846 (<= ?x479 ?x1513)) (or (<= ?x1077 ?x1711) $x27)) (<= ?x693 ?x2108))))
 (let (($x1059 (<= (+ (+ (+ (* 0.0 |v2:9|) ?x2059) (* 20.0 |v1:10|)) (* 16.0 |v8:3|)) 3.0)))
 (let ((?x2619 (+ (+ (+ (* (- 20.0) |v9:2|) (* ?x1711 ?x3175)) (* 12.0 |v2:9|)) (* ?x1021 ?x3175))))
 (let ((?x966 (+ (+ (+ (* 18.0 ?x3175) (* 7.0 (rval2 |v7:4_st|))) (* 8.0 |v1:10|)) |v1:10|)))
 (let ((?x1857 (* ?x2108 |v3:8|)))
 (let (($x877 (<= (+ (+ (+ (* 16.0 |v8:3|) (* ?x581 |v2:9|)) (* 4.0 |v11:0|)) ?x1857) ?x1711)))
 (let ((?x2949 (- 11.0)))
 (let ((?x2075 (+ (+ (+ (* 14.0 ?x3175) (* 12.0 |v1:10|)) (* 12.0 |v9:2|)) (* ?x1278 ?x468))))
 (let ((?x1034 (- 7.0)))
 (let ((?x894 (- 8.0)))
 (let ((?x379 (* ?x894 |v1:10|)))
 (let (($x1129 (<= (+ (+ (+ (* ?x894 |v0:11|) (* (- 3.0) |v11:0|)) (* ?x1711 |v2:9|)) ?x379) ?x1034)))
 (let ((?x1587 (+ (+ (* (- 17.0) |v0:11|) (* (- 13.0) |v1:10|)) (* 8.0 |v3:8|))))
 (let ((?x1808 (+ (+ (+ (* 13.0 |v11:0|) (* ?x1513 ?x3175)) (* (- 13.0) |v9:2|)) (* (- 3.0) (rval2 |v7:4_st|)))))
 (let ((?x1593 (* ?x1034 |v3:8|)))
 (let ((?x824 (+ (+ (+ (* 18.0 |v1:10|) (* 11.0 |v0:11|)) (* (- 6.0) (rval2 |v6:5_st|))) ?x1593)))
 (let ((?x1031 (* 19.0 ?x468)))
 (let (($x3024 (<= (+ (+ (+ (* ?x1711 |v1:10|) (* 20.0 |v3:8|)) (* ?x1034 |v10:1|)) ?x1031) ?x1711)))
 (let ((?x890 (* 8.0 ?x3175)))
 (let ((?x366 (+ (+ (+ (* 5.0 |v2:9|) (* 3.0 |v8:3|)) (* (- 19.0) |v11:0|)) ?x890)))
 (let (($x2596 (and (or (<= ?x366 0.0) $x3024) (or (<= ?x824 ?x1278) (<= ?x1808 7.0)))))
 (let (($x1958 (or $x2596 (or (<= (+ ?x1587 (* 9.0 ?x468)) 12.0) (and $x1129 (<= ?x2075 ?x2949))))))
 (let (($x1643 (and $x1958 (and (and (or $x877 (<= ?x966 1.0)) (<= ?x2619 ?x3179)) $x1059))))
 (let (($x1912 (and $x1643 (or $x655 (and (or (and $x2790 $x1293) (or $x1628 (<= ?x738 ?x207))) $x2897)))))
 (let (($x409 (<= (+ (+ (+ ?x379 (* 15.0 |v8:3|)) (* 6.0 |v8:3|)) (* 11.0 |v0:11|)) 14.0)))
 (let (($x3027 (not (= |v4:7_st| (RMk1 val!4263)))))
 (let (($x820 (not (= |v5:6_st| (RMk1 val!4262)))))
 (let (($x1286 (not (= |v6:5_st| (RMk1 val!4261)))))
 (let (($x2483 (not (= |v7:4_st| (RMk1 val!4260)))))
 (and $x2483 $x1286 $x820 $x3027 (or $x409 $x1912))))))))))))))))))))))))))))))))))))))))))))))))))))))))))))))))))
 )
 )
 )
 )
 )
 )
 )
 )
 )
 )
 )
 )
(check-sat)
